CPXPARAM_TimeLimit                               7200
CPXPARAM_Read_DataCheck                          1
CPXPARAM_Output_IntSolFilePrefix                 "solucoes/t_sol_ini_ID000M003J004_ZintTrue_manne_ub1/sol"
Found incumbent of value 69.000000 after 0.00 sec. (0.01 ticks)
Tried aggregator 1 time.
Reduced MIP has 48 rows, 31 columns, and 132 nonzeros.
Reduced MIP has 18 binaries, 0 generals, 0 SOSs, and 0 indicators.
Presolve time = 0.00 sec. (0.05 ticks)
Probing time = 0.00 sec. (0.01 ticks)
Tried aggregator 1 time.
Reduced MIP has 48 rows, 31 columns, and 132 nonzeros.
Reduced MIP has 18 binaries, 0 generals, 0 SOSs, and 0 indicators.
Presolve time = 0.00 sec. (0.06 ticks)
Probing time = 0.00 sec. (0.01 ticks)
MIP emphasis: balance optimality and feasibility.
MIP search method: dynamic search.
Parallel mode: deterministic, using up to 8 threads.
Root relaxation solution time = 0.00 sec. (0.07 ticks)

        Nodes                                         Cuts/
   Node  Left     Objective  IInf  Best Integer    Best Bound    ItCnt     Gap

*     0+    0                           69.0000       23.0000            66.67%
New incumbent written to file 'solucoes/t_sol_ini_ID000M003J004_ZintTrue_manne_ub1/sol-00001.sol'.
*     0+    0                           51.0000       23.0000            54.90%
New incumbent written to file 'solucoes/t_sol_ini_ID000M003J004_ZintTrue_manne_ub1/sol-00002.sol'.
      0     0       23.0000     6       51.0000       23.0000       13   54.90%
      0     0       25.4000     4       51.0000      Cuts: 13       32   50.20%
*     0+    0                           33.0000       25.4000            23.03%
New incumbent written to file 'solucoes/t_sol_ini_ID000M003J004_ZintTrue_manne_ub1/sol-00003.sol'.
      0     0       29.0000     4       33.0000      Cuts: 14       42   12.12%
*     0+    0                           29.0000       29.0000             0.00%
New incumbent written to file 'solucoes/t_sol_ini_ID000M003J004_ZintTrue_manne_ub1/sol-00004.sol'.
      0     0        cutoff             29.0000       29.0000       42    0.00%
Elapsed time = 0.01 sec. (1.02 ticks, tree = 0.01 MB, solutions = 4)

Implied bound cuts applied:  2
Flow cuts applied:  2
Mixed integer rounding cuts applied:  5
Gomory fractional cuts applied:  1

Root node processing (before b&c):
  Real time             =    0.01 sec. (1.02 ticks)
Parallel b&c, 8 threads:
  Real time             =    0.00 sec. (0.00 ticks)
  Sync time (average)   =    0.00 sec.
  Wait time (average)   =    0.00 sec.
                          ------------
Total (root+branch&cut) =    0.01 sec. (1.02 ticks)
